certificates/rado_a21_c20_N44.cnf
c Rad2 upper bound instance: x1 + 21*x2 - x3 = 20, interval [1,44]
p cnf 44 132
1 2 0
-1 -2 0
1 2 23 0
-1 -2 -23 0
1 3 44 0
-1 -3 -44 0
1 2 3 0
-1 -2 -3 0
2 24 0
-2 -24 0
1 3 4 0
-1 -3 -4 0
2 3 25 0
-2 -3 -25 0
1 4 5 0
-1 -4 -5 0
2 4 26 0
-2 -4 -26 0
1 5 6 0
-1 -5 -6 0
2 5 27 0
-2 -5 -27 0
1 6 7 0
-1 -6 -7 0
2 6 28 0
-2 -6 -28 0
1 7 8 0
-1 -7 -8 0
2 7 29 0
-2 -7 -29 0
1 8 9 0
-1 -8 -9 0
2 8 30 0
-2 -8 -30 0
1 9 10 0
-1 -9 -10 0
2 9 31 0
-2 -9 -31 0
1 10 11 0
-1 -10 -11 0
2 10 32 0
-2 -10 -32 0
1 11 12 0
-1 -11 -12 0
2 11 33 0
-2 -11 -33 0
1 12 13 0
-1 -12 -13 0
2 12 34 0
-2 -12 -34 0
1 13 14 0
-1 -13 -14 0
2 13 35 0
-2 -13 -35 0
1 14 15 0
-1 -14 -15 0
2 14 36 0
-2 -14 -36 0
1 15 16 0
-1 -15 -16 0
2 15 37 0
-2 -15 -37 0
1 16 17 0
-1 -16 -17 0
2 16 38 0
-2 -16 -38 0
1 17 18 0
-1 -17 -18 0
2 17 39 0
-2 -17 -39 0
1 18 19 0
-1 -18 -19 0
2 18 40 0
-2 -18 -40 0
1 19 20 0
-1 -19 -20 0
2 19 41 0
-2 -19 -41 0
1 20 21 0
-1 -20 -21 0
2 20 42 0
-2 -20 -42 0
1 21 22 0
-1 -21 -22 0
2 21 43 0
-2 -21 -43 0
1 22 23 0
-1 -22 -23 0
2 22 44 0
-2 -22 -44 0
1 23 24 0
-1 -23 -24 0
1 24 25 0
-1 -24 -25 0
1 25 26 0
-1 -25 -26 0
1 26 27 0
-1 -26 -27 0
1 27 28 0
-1 -27 -28 0
1 28 29 0
-1 -28 -29 0
1 29 30 0
-1 -29 -30 0
1 30 31 0
-1 -30 -31 0
1 31 32 0
-1 -31 -32 0
1 32 33 0
-1 -32 -33 0
1 33 34 0
-1 -33 -34 0
1 34 35 0
-1 -34 -35 0
1 35 36 0
-1 -35 -36 0
1 36 37 0
-1 -36 -37 0
1 37 38 0
-1 -37 -38 0
1 38 39 0
-1 -38 -39 0
1 39 40 0
-1 -39 -40 0
1 40 41 0
-1 -40 -41 0
1 41 42 0
-1 -41 -42 0
1 42 43 0
-1 -42 -43 0
1 43 44 0
-1 -43 -44 0
