certificates/rado_a21_c20_N44.drat
-43 -44 0
d -43 -1 -44 0
21 22 43 0
-2 43 0
-44 0
43 0
2 0
-1 0
-24 0
-21 0
3 0
25 0
23 0
22 0
20 0
0
